decision_x1=[0,7];
decision_x2=[0,7];
decision_x3=[0,7];
decision_x4=[0,7];
decision_x5=[0,7];
decision_x6=[0,7];
decision_x7=[0,7];
decision_x8=[0,7];
decision_x9=[0,7];
decision_x10=[0,7];
decision_x11=[0,7];
decision_x12=[0,7];
decision_x13=[0,7];
decision_x14=[0,7];
decision_x15=[0,7];
decision_x16=[0,7];
random_y1=[0,7];
random_y2=[0,7];
random_y3=[0,7];
random_y4=[0,7];
random_y5=[0,7];
random_y6=[0,7];
random_y7=[0,7];
constraint_x2_x1=[
0,0,2.5|
0,1,0.72|
0,2,3.3|
0,3,2.8|
0,4,0.29|
0,5,7.9|
0,6,8.9|
0,7,1.3|
1,0,9.1|
1,1,9.3|
1,2,9.8|
1,3,4.8|
1,4,0.51|
1,5,9.9|
1,6,7.1|
1,7,9.1|
2,0,0.86|
2,1,5.9|
2,2,8.1|
2,3,4|
2,4,6.2|
2,5,5.3|
2,6,7.1|
2,7,4.2|
3,0,5.2|
3,1,6.2|
3,2,8.5|
3,3,8.7|
3,4,2.2|
3,5,3.5|
3,6,5.6|
3,7,2.4|
4,0,5.2|
4,1,0.34|
4,2,4.8|
4,3,2|
4,4,1.2|
4,5,3|
4,6,3|
4,7,3|
5,0,0.49|
5,1,5.4|
5,2,0.38|
5,3,8.3|
5,4,7|
5,5,8.1|
5,6,2.1|
5,7,1.3|
6,0,5.5|
6,1,7.3|
6,2,1.7|
6,3,1.8|
6,4,8.5|
6,5,9.5|
6,6,5.8|
6,7,0.8|
7,0,7.6|
7,1,10|
7,2,3.7|
7,3,4.1|
7,4,5.3|
7,5,4.1|
7,6,1.8|
7,7,0.73|
];
constraint_x3_x2=[
0,0,8.8|
0,1,9.7|
0,2,10|
0,3,2.2|
0,4,5.2|
0,5,4.5|
0,6,5.9|
0,7,0.69|
1,0,6.6|
1,1,9.3|
1,2,0.77|
1,3,1.8|
1,4,0.74|
1,5,2.6|
1,6,2.4|
1,7,4.1|
2,0,9.5|
2,1,7.8|
2,2,2.7|
2,3,9.2|
2,4,9.6|
2,5,2.2|
2,6,4|
2,7,4.7|
3,0,1.5|
3,1,0.68|
3,2,9.7|
3,3,0.2|
3,4,3.4|
3,5,6.7|
3,6,1.6|
3,7,8.8|
4,0,3.8|
4,1,3.3|
4,2,2.7|
4,3,4.5|
4,4,9.1|
4,5,2.4|
4,6,2.9|
4,7,3|
5,0,6.1|
5,1,9.9|
5,2,6.9|
5,3,1.5|
5,4,3.2|
5,5,7.1|
5,6,9.9|
5,7,2.6|
6,0,4.9|
6,1,5.8|
6,2,5.4|
6,3,0.065|
6,4,9.2|
6,5,2.4|
6,6,6.2|
6,7,6.7|
7,0,2.2|
7,1,1.4|
7,2,2.6|
7,3,1.5|
7,4,2.8|
7,5,8.1|
7,6,8.6|
7,7,8|
];
constraint_x4_x3=[
0,0,0.45|
0,1,3.5|
0,2,8.4|
0,3,5.7|
0,4,8.8|
0,5,6.4|
0,6,7.8|
0,7,6|
1,0,0.27|
1,1,1.4|
1,2,2.1|
1,3,0.12|
1,4,0.61|
1,5,2.1|
1,6,6.3|
1,7,0.72|
2,0,5.4|
2,1,7.8|
2,2,0.59|
2,3,4.6|
2,4,1.2|
2,5,2.9|
2,6,5.5|
2,7,9.7|
3,0,7.4|
3,1,8|
3,2,5|
3,3,0.58|
3,4,4.8|
3,5,6.7|
3,6,7.1|
3,7,6.8|
4,0,2.3|
4,1,2|
4,2,3|
4,3,5.2|
4,4,2.7|
4,5,3.2|
4,6,1.5|
4,7,1.5|
5,0,5|
5,1,3.3|
5,2,7.9|
5,3,7.7|
5,4,4.1|
5,5,5|
5,6,5|
5,7,9.6|
6,0,5.2|
6,1,1.8|
6,2,6.1|
6,3,6.1|
6,4,9.7|
6,5,2|
6,6,1.7|
6,7,1.4|
7,0,6.5|
7,1,1.5|
7,2,5.2|
7,3,2.6|
7,4,6.2|
7,5,4.1|
7,6,6.4|
7,7,8|
];
constraint_x5_x1=[
0,0,0.87|
0,1,5.3|
0,2,9|
0,3,2.8|
0,4,9.3|
0,5,9.5|
0,6,9.2|
0,7,5.3|
1,0,4.4|
1,1,2.6|
1,2,5.1|
1,3,6.7|
1,4,7|
1,5,5.1|
1,6,6.9|
1,7,3.5|
2,0,3.2|
2,1,0.23|
2,2,3.3|
2,3,2.1|
2,4,8.1|
2,5,8.4|
2,6,1.8|
2,7,3.6|
3,0,2.4|
3,1,1.3|
3,2,0.38|
3,3,7.6|
3,4,0.64|
3,5,9.6|
3,6,1.9|
3,7,2.5|
4,0,2.8|
4,1,0.97|
4,2,9.3|
4,3,8.7|
4,4,0.51|
4,5,9.3|
4,6,6.9|
4,7,5.6|
5,0,2.1|
5,1,3.4|
5,2,2.8|
5,3,9.9|
5,4,4.4|
5,5,5.5|
5,6,8.3|
5,7,2.5|
6,0,6.5|
6,1,4.1|
6,2,1.7|
6,3,10|
6,4,2|
6,5,0.084|
6,6,5.4|
6,7,5.8|
7,0,4.6|
7,1,2|
7,2,8|
7,3,9.5|
7,4,2|
7,5,3.1|
7,6,6.4|
7,7,5.4|
];
constraint_x6_x2=[
0,0,3.1|
0,1,2|
0,2,6.3|
0,3,3.7|
0,4,1.9|
0,5,1.7|
0,6,6|
0,7,8.5|
1,0,8.1|
1,1,4.2|
1,2,3.9|
1,3,9.1|
1,4,3.3|
1,5,0.85|
1,6,9.6|
1,7,1.8|
2,0,2.7|
2,1,1.9|
2,2,0.16|
2,3,4.6|
2,4,6.1|
2,5,8.7|
2,6,9.6|
2,7,0.014|
3,0,9.4|
3,1,2.9|
3,2,9.5|
3,3,9|
3,4,3.3|
3,5,2|
3,6,5.9|
3,7,3.2|
4,0,4.7|
4,1,2.3|
4,2,6.3|
4,3,0.51|
4,4,6.5|
4,5,8.8|
4,6,8.2|
4,7,4.5|
5,0,3.7|
5,1,3.1|
5,2,4.1|
5,3,3.6|
5,4,1.2|
5,5,5.6|
5,6,0.92|
5,7,4.1|
6,0,0.15|
6,1,2.6|
6,2,3.5|
6,3,2.5|
6,4,4.6|
6,5,3.6|
6,6,4|
6,7,2.9|
7,0,6.4|
7,1,4.7|
7,2,4.1|
7,3,9.3|
7,4,1.1|
7,5,4.1|
7,6,4.2|
7,7,6.6|
];
constraint_x6_x5=[
0,0,2.2|
0,1,1.9|
0,2,3.5|
0,3,5.9|
0,4,5.3|
0,5,1|
0,6,2.7|
0,7,2.8|
1,0,7|
1,1,1.4|
1,2,7.9|
1,3,0.71|
1,4,6.2|
1,5,2.9|
1,6,2.8|
1,7,4.3|
2,0,7|
2,1,5.1|
2,2,4.4|
2,3,4.8|
2,4,2.3|
2,5,8.5|
2,6,0.82|
2,7,0.51|
3,0,1.5|
3,1,9.3|
3,2,6|
3,3,5.6|
3,4,7.7|
3,5,9.4|
3,6,5.1|
3,7,4.6|
4,0,7.2|
4,1,5.3|
4,2,1.7|
4,3,5.8|
4,4,3|
4,5,5.9|
4,6,2.4|
4,7,0.67|
5,0,9|
5,1,0.88|
5,2,2.1|
5,3,9.9|
5,4,4.2|
5,5,2.8|
5,6,1.3|
5,7,5.8|
6,0,6.8|
6,1,6.1|
6,2,9.6|
6,3,6.1|
6,4,0.87|
6,5,5.1|
6,6,8.5|
6,7,7.6|
7,0,9.9|
7,1,4.2|
7,2,7.5|
7,3,3.1|
7,4,5.5|
7,5,0.62|
7,6,6.4|
7,7,9.1|
];
constraint_x7_x3=[
0,0,7.6|
0,1,3.4|
0,2,8.7|
0,3,2.5|
0,4,0.41|
0,5,5.6|
0,6,2|
0,7,5.4|
1,0,0.77|
1,1,9.4|
1,2,3.8|
1,3,5.7|
1,4,3|
1,5,9.1|
1,6,1.5|
1,7,0.66|
2,0,2.7|
2,1,10|
2,2,3.3|
2,3,4.6|
2,4,1|
2,5,8.9|
2,6,6.9|
2,7,0.99|
3,0,2.7|
3,1,1.9|
3,2,8.3|
3,3,9.6|
3,4,2.6|
3,5,6.9|
3,6,1.6|
3,7,3|
4,0,9.2|
4,1,9.6|
4,2,9.4|
4,3,7.9|
4,4,1.5|
4,5,2.7|
4,6,3.4|
4,7,1.7|
5,0,9.1|
5,1,2|
5,2,5.1|
5,3,4.4|
5,4,0.29|
5,5,7.6|
5,6,7.5|
5,7,5.4|
6,0,1.2|
6,1,6.9|
6,2,2.3|
6,3,5.9|
6,4,8.7|
6,5,6.3|
6,6,3.4|
6,7,7.3|
7,0,0.81|
7,1,6.9|
7,2,9.3|
7,3,3.8|
7,4,2.7|
7,5,6.6|
7,6,2.1|
7,7,7.1|
];
constraint_x7_x6=[
0,0,7.9|
0,1,6|
0,2,8.5|
0,3,1.3|
0,4,7.7|
0,5,8.6|
0,6,0.42|
0,7,2.5|
1,0,6.1|
1,1,5.9|
1,2,2.8|
1,3,6.5|
1,4,4.9|
1,5,3.7|
1,6,6|
1,7,3.9|
2,0,1.2|
2,1,4.9|
2,2,9|
2,3,0.9|
2,4,1.5|
2,5,7.9|
2,6,0.23|
2,7,3.2|
3,0,3.2|
3,1,9.5|
3,2,2.1|
3,3,2.4|
3,4,8|
3,5,5.5|
3,6,3.8|
3,7,6.2|
4,0,5.6|
4,1,8.4|
4,2,4.9|
4,3,0.24|
4,4,3.9|
4,5,6.8|
4,6,7.7|
4,7,7.4|
5,0,9.9|
5,1,8.3|
5,2,5.9|
5,3,1.4|
5,4,6.9|
5,5,1.9|
5,6,2.5|
5,7,9.1|
6,0,9.6|
6,1,3.1|
6,2,9.3|
6,3,5.6|
6,4,0.13|
6,5,1.7|
6,6,4|
6,7,3.1|
7,0,3.9|
7,1,5.3|
7,2,0.17|
7,3,6.6|
7,4,9|
7,5,4.4|
7,6,7.4|
7,7,9.4|
];
constraint_x8_x4=[
0,0,6.9|
0,1,7.5|
0,2,2.2|
0,3,1.8|
0,4,1.1|
0,5,5.8|
0,6,5.8|
0,7,8.9|
1,0,0.45|
1,1,8.9|
1,2,3.8|
1,3,6.5|
1,4,1.6|
1,5,1|
1,6,4.8|
1,7,0.079|
2,0,7.2|
2,1,10|
2,2,5.8|
2,3,9.2|
2,4,9.5|
2,5,1.8|
2,6,6.8|
2,7,5.9|
3,0,5|
3,1,0.92|
3,2,5.4|
3,3,9.4|
3,4,1.8|
3,5,0.45|
3,6,0.75|
3,7,4.7|
4,0,4.7|
4,1,2.1|
4,2,3.6|
4,3,6|
4,4,9.5|
4,5,3.2|
4,6,8.1|
4,7,4.5|
5,0,0.35|
5,1,7.9|
5,2,8.3|
5,3,4.2|
5,4,3.8|
5,5,5.7|
5,6,6.5|
5,7,3.3|
6,0,5.8|
6,1,3.8|
6,2,5.1|
6,3,4.7|
6,4,4.1|
6,5,8.8|
6,6,6|
6,7,8.5|
7,0,0.49|
7,1,4|
7,2,8.9|
7,3,1|
7,4,0.39|
7,5,7.5|
7,6,3.8|
7,7,2.6|
];
constraint_x8_x7=[
0,0,6.4|
0,1,3.6|
0,2,3|
0,3,1.2|
0,4,3.7|
0,5,3.1|
0,6,0.13|
0,7,0.079|
1,0,2.8|
1,1,6.9|
1,2,2.1|
1,3,7.4|
1,4,7.7|
1,5,8.5|
1,6,8.2|
1,7,0.43|
2,0,6.1|
2,1,2|
2,2,1.2|
2,3,8.4|
2,4,5.1|
2,5,2.5|
2,6,1.7|
2,7,0.056|
3,0,8.8|
3,1,3.5|
3,2,7.4|
3,3,6.2|
3,4,3.8|
3,5,1.8|
3,6,9.5|
3,7,8.4|
4,0,2|
4,1,3.5|
4,2,9.2|
4,3,8.8|
4,4,9.2|
4,5,0.43|
4,6,1.4|
4,7,8.8|
5,0,8.2|
5,1,3.8|
5,2,8.8|
5,3,3.6|
5,4,5.6|
5,5,4.6|
5,6,2.3|
5,7,3.8|
6,0,3.7|
6,1,9.9|
6,2,5.8|
6,3,2.1|
6,4,0.41|
6,5,9.8|
6,6,7.7|
6,7,0.44|
7,0,9.5|
7,1,4|
7,2,6.1|
7,3,8.8|
7,4,4.1|
7,5,0.83|
7,6,6.7|
7,7,5.4|
];
constraint_x9_x5=[
0,0,7.9|
0,1,5.7|
0,2,5.1|
0,3,2.4|
0,4,8.3|
0,5,1.2|
0,6,3.7|
0,7,2.9|
1,0,4|
1,1,9.5|
1,2,9.1|
1,3,1.1|
1,4,6.1|
1,5,5|
1,6,9.4|
1,7,5.6|
2,0,7.6|
2,1,1.4|
2,2,9.4|
2,3,7.3|
2,4,5.6|
2,5,5.8|
2,6,3.1|
2,7,0.78|
3,0,2.9|
3,1,7|
3,2,7.9|
3,3,4.7|
3,4,8.4|
3,5,9.3|
3,6,0.62|
3,7,9|
4,0,7.6|
4,1,3.5|
4,2,6.6|
4,3,4.8|
4,4,0.92|
4,5,0.95|
4,6,6.6|
4,7,7.5|
5,0,0.045|
5,1,8.4|
5,2,0.41|
5,3,3.6|
5,4,6.8|
5,5,8.9|
5,6,4.8|
5,7,7.8|
6,0,0.7|
6,1,8.4|
6,2,3.3|
6,3,2|
6,4,9.7|
6,5,7.6|
6,6,4.9|
6,7,9.4|
7,0,7.4|
7,1,6.5|
7,2,9.6|
7,3,8.8|
7,4,4.1|
7,5,8.7|
7,6,8.9|
7,7,1.6|
];
constraint_x10_x6=[
0,0,2.8|
0,1,4.1|
0,2,3.7|
0,3,3.2|
0,4,2.7|
0,5,8.3|
0,6,9.1|
0,7,6|
1,0,8|
1,1,0.85|
1,2,3.1|
1,3,4.4|
1,4,8.1|
1,5,5.1|
1,6,9.3|
1,7,5.2|
2,0,0.63|
2,1,3|
2,2,6.9|
2,3,7|
2,4,3.8|
2,5,8.2|
2,6,2.3|
2,7,7.5|
3,0,6.4|
3,1,4.4|
3,2,9|
3,3,5.8|
3,4,2|
3,5,2.9|
3,6,7.5|
3,7,9.8|
4,0,1.7|
4,1,9.9|
4,2,9.7|
4,3,5.9|
4,4,7.7|
4,5,7.9|
4,6,6.1|
4,7,4.9|
5,0,6.7|
5,1,6.7|
5,2,8.5|
5,3,4.6|
5,4,1.8|
5,5,5.4|
5,6,9.4|
5,7,7|
6,0,8.7|
6,1,8.2|
6,2,0.23|
6,3,7.7|
6,4,9.1|
6,5,2.6|
6,6,9.6|
6,7,0.67|
7,0,1.2|
7,1,8.4|
7,2,9.6|
7,3,7.1|
7,4,2.9|
7,5,7.6|
7,6,8.7|
7,7,0.85|
];
constraint_x10_x9=[
0,0,1.1|
0,1,9.6|
0,2,5.5|
0,3,2.1|
0,4,1|
0,5,5.1|
0,6,6.4|
0,7,4.6|
1,0,5.9|
1,1,0.41|
1,2,3.5|
1,3,7.8|
1,4,7.6|
1,5,1.1|
1,6,3.3|
1,7,6.4|
2,0,9.3|
2,1,2.6|
2,2,2.5|
2,3,6.5|
2,4,1.9|
2,5,3.7|
2,6,2.2|
2,7,1.9|
3,0,9|
3,1,9.7|
3,2,4.5|
3,3,0.64|
3,4,7.8|
3,5,1.7|
3,6,1.4|
3,7,5.5|
4,0,0.11|
4,1,9.5|
4,2,8|
4,3,9.4|
4,4,7.6|
4,5,6.5|
4,6,6.4|
4,7,8.8|
5,0,2.8|
5,1,7.6|
5,2,5.6|
5,3,1.7|
5,4,0.73|
5,5,7|
5,6,0.53|
5,7,4.1|
6,0,6.6|
6,1,0.76|
6,2,2|
6,3,4|
6,4,9.9|
6,5,5.9|
6,6,5.7|
6,7,9.4|
7,0,4.7|
7,1,7.6|
7,2,4.3|
7,3,7.8|
7,4,4.2|
7,5,1.3|
7,6,5|
7,7,5.7|
];
constraint_x11_x7=[
0,0,1.4|
0,1,6.2|
0,2,7.7|
0,3,6.9|
0,4,1.9|
0,5,6.2|
0,6,2.2|
0,7,5.3|
1,0,2.6|
1,1,9.2|
1,2,5.5|
1,3,9.6|
1,4,7.7|
1,5,9.2|
1,6,8.5|
1,7,6.8|
2,0,7.7|
2,1,6.6|
2,2,2.5|
2,3,1.1|
2,4,0.24|
2,5,5.6|
2,6,9.4|
2,7,1.8|
3,0,9.4|
3,1,5.1|
3,2,1.5|
3,3,9.9|
3,4,0.46|
3,5,5|
3,6,2.9|
3,7,2.1|
4,0,6.7|
4,1,0.083|
4,2,7.4|
4,3,4.3|
4,4,7.6|
4,5,4.6|
4,6,9.9|
4,7,4.4|
5,0,8.8|
5,1,6.6|
5,2,5.6|
5,3,0.053|
5,4,0.19|
5,5,4.9|
5,6,4.5|
5,7,2.5|
6,0,9.2|
6,1,8.6|
6,2,8.8|
6,3,6.5|
6,4,5.5|
6,5,0.62|
6,6,9|
6,7,2.4|
7,0,3.9|
7,1,2|
7,2,4|
7,3,0.46|
7,4,5.2|
7,5,4.8|
7,6,8.9|
7,7,3|
];
constraint_x11_x10=[
0,0,1.5|
0,1,9.7|
0,2,0.49|
0,3,9.5|
0,4,4.6|
0,5,3.2|
0,6,0.74|
0,7,8.1|
1,0,6.3|
1,1,5.8|
1,2,9|
1,3,4.8|
1,4,0.39|
1,5,3|
1,6,6.9|
1,7,1.6|
2,0,2.1|
2,1,9.7|
2,2,5.4|
2,3,0.5|
2,4,6.9|
2,5,3.1|
2,6,3.5|
2,7,4.8|
3,0,8.6|
3,1,6.7|
3,2,9.4|
3,3,3.9|
3,4,6.8|
3,5,6.9|
3,6,8|
3,7,0.75|
4,0,9.8|
4,1,1.7|
4,2,9.1|
4,3,2.3|
4,4,2.6|
4,5,4.9|
4,6,9.7|
4,7,5.2|
5,0,3.9|
5,1,5.6|
5,2,2|
5,3,9.2|
5,4,1.7|
5,5,9.9|
5,6,9|
5,7,8.7|
6,0,2.1|
6,1,3.7|
6,2,2.3|
6,3,0.74|
6,4,5.3|
6,5,6.9|
6,6,7.3|
6,7,2.2|
7,0,6.7|
7,1,9.7|
7,2,1.4|
7,3,4.6|
7,4,2.6|
7,5,0.13|
7,6,6.9|
7,7,5|
];
constraint_x12_x8=[
0,0,6.6|
0,1,8.8|
0,2,4.7|
0,3,3.1|
0,4,7.4|
0,5,5.8|
0,6,9.4|
0,7,7.2|
1,0,8.8|
1,1,3.3|
1,2,7.3|
1,3,2|
1,4,4.2|
1,5,4.2|
1,6,3.6|
1,7,6.4|
2,0,3.4|
2,1,4|
2,2,7.7|
2,3,0.94|
2,4,4|
2,5,5.1|
2,6,1.8|
2,7,3.1|
3,0,2.4|
3,1,1|
3,2,7.2|
3,3,2.1|
3,4,2.7|
3,5,9|
3,6,3.8|
3,7,6.6|
4,0,3.1|
4,1,4.7|
4,2,9.7|
4,3,4.3|
4,4,4.9|
4,5,6.9|
4,6,4.9|
4,7,8.5|
5,0,5.1|
5,1,6.4|
5,2,7.5|
5,3,1.6|
5,4,6.6|
5,5,3.9|
5,6,5.7|
5,7,3.1|
6,0,0.36|
6,1,9.6|
6,2,9.9|
6,3,5.9|
6,4,1.1|
6,5,8.2|
6,6,5|
6,7,2.1|
7,0,8.5|
7,1,10|
7,2,2.4|
7,3,3.7|
7,4,6.9|
7,5,6.3|
7,6,4.3|
7,7,4.3|
];
constraint_x12_x11=[
0,0,3.7|
0,1,7.3|
0,2,8.8|
0,3,5.8|
0,4,7.7|
0,5,7.4|
0,6,5.6|
0,7,0.99|
1,0,7.2|
1,1,2.6|
1,2,9.8|
1,3,1.6|
1,4,8|
1,5,6.9|
1,6,8.3|
1,7,3|
2,0,3.4|
2,1,2.4|
2,2,7.1|
2,3,9|
2,4,3|
2,5,6.2|
2,6,2.9|
2,7,8.3|
3,0,5.5|
3,1,2.5|
3,2,0.92|
3,3,0.48|
3,4,0.67|
3,5,7.5|
3,6,6.9|
3,7,3.7|
4,0,4.9|
4,1,7.6|
4,2,1.6|
4,3,3.1|
4,4,4.7|
4,5,0.95|
4,6,4.7|
4,7,9.5|
5,0,4.5|
5,1,5.7|
5,2,2.8|
5,3,7.6|
5,4,3.1|
5,5,2|
5,6,2.1|
5,7,8.3|
6,0,1.6|
6,1,7.6|
6,2,9.1|
6,3,4.4|
6,4,2.6|
6,5,1.9|
6,6,9.1|
6,7,1.5|
7,0,0.081|
7,1,9.2|
7,2,3.6|
7,3,0.36|
7,4,3.5|
7,5,7.6|
7,6,5.2|
7,7,1.4|
];
constraint_x13_x9=[
0,0,0.94|
0,1,2.3|
0,2,0.42|
0,3,2.4|
0,4,6.6|
0,5,1.4|
0,6,2.2|
0,7,1|
1,0,5.7|
1,1,5|
1,2,2.4|
1,3,0.061|
1,4,5.9|
1,5,0.53|
1,6,5.8|
1,7,1.7|
2,0,9.2|
2,1,6.8|
2,2,2.2|
2,3,3.3|
2,4,6.5|
2,5,6.9|
2,6,3|
2,7,4.7|
3,0,2.3|
3,1,2.4|
3,2,8.4|
3,3,3|
3,4,6.7|
3,5,9.4|
3,6,0.35|
3,7,0.95|
4,0,9|
4,1,1|
4,2,1.1|
4,3,9.6|
4,4,2.8|
4,5,6|
4,6,6.3|
4,7,6.5|
5,0,5.6|
5,1,6.2|
5,2,4.3|
5,3,3.4|
5,4,2.7|
5,5,0.19|
5,6,9.9|
5,7,4.7|
6,0,3.7|
6,1,5.3|
6,2,5.4|
6,3,6.1|
6,4,2|
6,5,2.9|
6,6,1.4|
6,7,3.1|
7,0,8.8|
7,1,1|
7,2,7.3|
7,3,9|
7,4,6.9|
7,5,3.4|
7,6,2.6|
7,7,8.4|
];
constraint_x14_x10=[
0,0,3.7|
0,1,7.3|
0,2,0.35|
0,3,4|
0,4,7.1|
0,5,2.2|
0,6,6.7|
0,7,2.2|
1,0,3.5|
1,1,5.9|
1,2,4.2|
1,3,6.3|
1,4,9.6|
1,5,4.4|
1,6,7.7|
1,7,1.5|
2,0,0.73|
2,1,6.9|
2,2,3.2|
2,3,0.073|
2,4,5.1|
2,5,1.2|
2,6,2.4|
2,7,5.4|
3,0,4.3|
3,1,5.5|
3,2,5.2|
3,3,4.6|
3,4,6.2|
3,5,7.6|
3,6,9.6|
3,7,2.4|
4,0,8|
4,1,3.7|
4,2,7.1|
4,3,3.1|
4,4,5.9|
4,5,0.8|
4,6,1.6|
4,7,7.8|
5,0,3.5|
5,1,9|
5,2,4.6|
5,3,3.7|
5,4,2.9|
5,5,0.49|
5,6,5.5|
5,7,6.2|
6,0,8.3|
6,1,2.1|
6,2,9|
6,3,5.2|
6,4,4.7|
6,5,9|
6,6,6|
6,7,1.2|
7,0,0.85|
7,1,1.9|
7,2,0.14|
7,3,8.2|
7,4,1.1|
7,5,1.7|
7,6,2.8|
7,7,4.3|
];
constraint_x15_x11=[
0,0,6.6|
0,1,4.5|
0,2,9.7|
0,3,0.32|
0,4,4.3|
0,5,8.5|
0,6,3.9|
0,7,2.8|
1,0,9.1|
1,1,6.2|
1,2,3.1|
1,3,1.6|
1,4,10|
1,5,7|
1,6,2.6|
1,7,1.1|
2,0,0.41|
2,1,1.5|
2,2,0.95|
2,3,8.8|
2,4,4.6|
2,5,0.88|
2,6,7.7|
2,7,9.9|
3,0,6.7|
3,1,1.7|
3,2,3.8|
3,3,2.7|
3,4,0.16|
3,5,3.3|
3,6,4.7|
3,7,6.4|
4,0,5.1|
4,1,7.8|
4,2,9.6|
4,3,8.5|
4,4,5.8|
4,5,9.3|
4,6,6.6|
4,7,2.6|
5,0,4|
5,1,5.6|
5,2,7.8|
5,3,8.8|
5,4,0.5|
5,5,3.9|
5,6,9.9|
5,7,5.1|
6,0,2.6|
6,1,8.2|
6,2,2.8|
6,3,0.77|
6,4,2.8|
6,5,1.8|
6,6,3.9|
6,7,5.6|
7,0,7.7|
7,1,5.4|
7,2,7.5|
7,3,5.7|
7,4,8.3|
7,5,0.014|
7,6,2|
7,7,6.6|
];
constraint_x16_x12=[
0,0,8.6|
0,1,1.4|
0,2,0.73|
0,3,0.73|
0,4,0.9|
0,5,8|
0,6,7.3|
0,7,5.9|
1,0,1.1|
1,1,7.1|
1,2,0.034|
1,3,7.2|
1,4,8.7|
1,5,3.8|
1,6,0.36|
1,7,0.46|
2,0,7.4|
2,1,2.4|
2,2,4.8|
2,3,5.2|
2,4,7|
2,5,1.8|
2,6,5.5|
2,7,1.3|
3,0,9.1|
3,1,6.4|
3,2,7.6|
3,3,1.4|
3,4,6|
3,5,6.2|
3,6,9.1|
3,7,2.5|
4,0,0.49|
4,1,9.4|
4,2,0.85|
4,3,0.13|
4,4,5.2|
4,5,9.4|
4,6,5.7|
4,7,2.6|
5,0,1.8|
5,1,0.29|
5,2,5.1|
5,3,9|
5,4,9.2|
5,5,7.7|
5,6,10|
5,7,4.1|
6,0,0.24|
6,1,0.53|
6,2,6.5|
6,3,2.8|
6,4,6.2|
6,5,8.9|
6,6,1.6|
6,7,0.25|
7,0,8.9|
7,1,0.19|
7,2,6.2|
7,3,5.1|
7,4,4.1|
7,5,4.7|
7,6,7.6|
7,7,6.1|
];
constraint_x1_y1=[
0,0,8.8|
0,1,2.2|
0,2,9|
0,3,7.8|
0,4,5.7|
0,5,2.5|
0,6,4.9|
0,7,7|
1,0,0.62|
1,1,9.1|
1,2,7.7|
1,3,5.5|
1,4,1.4|
1,5,9.8|
1,6,8.6|
1,7,0.014|
2,0,1.7|
2,1,5|
2,2,0.33|
2,3,6.9|
2,4,4.9|
2,5,3.1|
2,6,0.66|
2,7,8.3|
3,0,8.4|
3,1,9.3|
3,2,4.7|
3,3,8.6|
3,4,9.9|
3,5,8.1|
3,6,6.9|
3,7,3.4|
4,0,4.1|
4,1,6.8|
4,2,2.3|
4,3,8.6|
4,4,7|
4,5,3|
4,6,2.3|
4,7,5.4|
5,0,0.32|
5,1,1.3|
5,2,1.2|
5,3,2.6|
5,4,3.5|
5,5,4.4|
5,6,2.8|
5,7,9.9|
6,0,9.5|
6,1,8.5|
6,2,7.6|
6,3,1.9|
6,4,1.9|
6,5,9.7|
6,6,2.9|
6,7,7.5|
7,0,4|
7,1,7.9|
7,2,9.7|
7,3,2.4|
7,4,2.6|
7,5,7.9|
7,6,4.4|
7,7,5|
];
constraint_x2_y2=[
0,0,3|
0,1,9.2|
0,2,5.3|
0,3,5|
0,4,3.9|
0,5,10|
0,6,5.1|
0,7,8.4|
1,0,6.8|
1,1,6.2|
1,2,4|
1,3,4.4|
1,4,9.7|
1,5,4.3|
1,6,5.6|
1,7,8|
2,0,8.1|
2,1,5.3|
2,2,3.1|
2,3,4.7|
2,4,6.9|
2,5,7.2|
2,6,4.3|
2,7,6.6|
3,0,0.91|
3,1,9.8|
3,2,4.6|
3,3,0.33|
3,4,4.2|
3,5,0.98|
3,6,8.5|
3,7,1.3|
4,0,1.5|
4,1,7.8|
4,2,8|
4,3,3.3|
4,4,6.2|
4,5,0.89|
4,6,6.3|
4,7,6.8|
5,0,9.1|
5,1,8.1|
5,2,9.7|
5,3,4.9|
5,4,2.1|
5,5,1.3|
5,6,3.4|
5,7,4.8|
6,0,9|
6,1,8.1|
6,2,8.4|
6,3,3.3|
6,4,8.7|
6,5,9.7|
6,6,9.2|
6,7,1.9|
7,0,5.7|
7,1,2.5|
7,2,0.4|
7,3,4.2|
7,4,3.5|
7,5,4.7|
7,6,2.8|
7,7,6.7|
];
constraint_x3_y3=[
0,0,9.4|
0,1,2|
0,2,3.7|
0,3,8.5|
0,4,1.9|
0,5,2.5|
0,6,6.2|
0,7,1.1|
1,0,8.1|
1,1,6.4|
1,2,4.2|
1,3,6.6|
1,4,0.88|
1,5,4.5|
1,6,0.26|
1,7,4.3|
2,0,8.4|
2,1,1.7|
2,2,5.4|
2,3,3.3|
2,4,5.8|
2,5,2.6|
2,6,0.48|
2,7,0.31|
3,0,5.1|
3,1,2.9|
3,2,1|
3,3,7.2|
3,4,9.5|
3,5,5.2|
3,6,5.9|
3,7,3.8|
4,0,5.3|
4,1,6.1|
4,2,0.59|
4,3,0.77|
4,4,5.1|
4,5,1.7|
4,6,6.6|
4,7,0.23|
5,0,10|
5,1,8.3|
5,2,4.1|
5,3,6.5|
5,4,4.7|
5,5,5.5|
5,6,5.2|
5,7,6.7|
6,0,8.8|
6,1,0.92|
6,2,0.43|
6,3,1.2|
6,4,4.1|
6,5,2.5|
6,6,9.4|
6,7,6.5|
7,0,5.1|
7,1,8.5|
7,2,5|
7,3,3.2|
7,4,8.3|
7,5,3.4|
7,6,9.5|
7,7,8|
];
constraint_x4_y4=[
0,0,6.5|
0,1,4.2|
0,2,1.4|
0,3,5.8|
0,4,9.4|
0,5,2.6|
0,6,2.9|
0,7,5.7|
1,0,9.3|
1,1,4.9|
1,2,3.7|
1,3,2.4|
1,4,4.3|
1,5,4.4|
1,6,5.2|
1,7,7.5|
2,0,9.3|
2,1,1.5|
2,2,3.9|
2,3,8.5|
2,4,0.24|
2,5,6.3|
2,6,1.2|
2,7,3.5|
3,0,2.7|
3,1,8.6|
3,2,1.4|
3,3,8.3|
3,4,1.4|
3,5,6.7|
3,6,0.41|
3,7,7.7|
4,0,6.2|
4,1,8.9|
4,2,6.7|
4,3,1.2|
4,4,5.6|
4,5,4.9|
4,6,3.8|
4,7,0.27|
5,0,5.3|
5,1,2.1|
5,2,8.8|
5,3,7.7|
5,4,1.2|
5,5,3.9|
5,6,1.6|
5,7,9.5|
6,0,0.22|
6,1,4.3|
6,2,2.8|
6,3,1.9|
6,4,1.5|
6,5,6.3|
6,6,4.3|
6,7,8.1|
7,0,10|
7,1,4.5|
7,2,0.77|
7,3,7.3|
7,4,6.4|
7,5,3.1|
7,6,8.9|
7,7,6.7|
];
constraint_x5_y5=[
0,0,6|
0,1,2.5|
0,2,4.1|
0,3,5.4|
0,4,5.4|
0,5,1.5|
0,6,2.5|
0,7,6.7|
1,0,3.7|
1,1,2|
1,2,3.1|
1,3,0.57|
1,4,7|
1,5,8.2|
1,6,8.8|
1,7,5.3|
2,0,9|
2,1,5.3|
2,2,8.1|
2,3,9.7|
2,4,6.5|
2,5,1.6|
2,6,3.9|
2,7,5.9|
3,0,2.4|
3,1,8.9|
3,2,3.6|
3,3,2.6|
3,4,8.7|
3,5,7.7|
3,6,3.4|
3,7,0.45|
4,0,2.7|
4,1,9.4|
4,2,7.8|
4,3,5.2|
4,4,2|
4,5,3.6|
4,6,3.7|
4,7,1.5|
5,0,8.7|
5,1,4.1|
5,2,7.5|
5,3,4.7|
5,4,0.75|
5,5,2|
5,6,2.9|
5,7,4.8|
6,0,1.2|
6,1,5.1|
6,2,5.4|
6,3,8.4|
6,4,1.5|
6,5,4.7|
6,6,6.2|
6,7,1.7|
7,0,7|
7,1,0.44|
7,2,8.2|
7,3,2.1|
7,4,4.6|
7,5,0.34|
7,6,4.2|
7,7,4.9|
];
constraint_x6_y6=[
0,0,8.7|
0,1,0.27|
0,2,8.8|
0,3,0.45|
0,4,1.4|
0,5,3.8|
0,6,1|
0,7,6.6|
1,0,8|
1,1,7.4|
1,2,8.2|
1,3,5.7|
1,4,9.3|
1,5,7.1|
1,6,5.7|
1,7,5.9|
2,0,9.5|
2,1,8.6|
2,2,7.8|
2,3,8.6|
2,4,3.6|
2,5,1.2|
2,6,3.1|
2,7,10|
3,0,10|
3,1,6.7|
3,2,7.9|
3,3,0.81|
3,4,1.9|
3,5,0.038|
3,6,8.9|
3,7,3|
4,0,2.5|
4,1,6|
4,2,1.1|
4,3,2.5|
4,4,5.8|
4,5,3.2|
4,6,1.9|
4,7,6.9|
5,0,5.7|
5,1,4.9|
5,2,0.57|
5,3,2|
5,4,1.7|
5,5,4.9|
5,6,1.3|
5,7,3.2|
6,0,6.9|
6,1,2.8|
6,2,1.9|
6,3,1.7|
6,4,9.3|
6,5,7.9|
6,6,1.5|
6,7,5.8|
7,0,1.6|
7,1,4.6|
7,2,3.2|
7,3,0.4|
7,4,3|
7,5,3.6|
7,6,5.8|
7,7,3.8|
];
constraint_x7_y7=[
0,0,9.2|
0,1,3.4|
0,2,0.64|
0,3,2.6|
0,4,8.8|
0,5,6.2|
0,6,7.2|
0,7,8.3|
1,0,4.3|
1,1,7|
1,2,1.6|
1,3,0.3|
1,4,7.4|
1,5,2.6|
1,6,3.9|
1,7,8.4|
2,0,1.2|
2,1,7.3|
2,2,1.2|
2,3,9.5|
2,4,5.2|
2,5,6.2|
2,6,6.7|
2,7,4.4|
3,0,7.5|
3,1,9.5|
3,2,1.7|
3,3,0.53|
3,4,2.1|
3,5,8.9|
3,6,1.5|
3,7,3.9|
4,0,6|
4,1,9.6|
4,2,5.6|
4,3,8.3|
4,4,3.5|
4,5,1.4|
4,6,2.9|
4,7,4.6|
5,0,0.28|
5,1,5.4|
5,2,0.94|
5,3,2.8|
5,4,9.2|
5,5,8.5|
5,6,6.6|
5,7,0.26|
6,0,7.5|
6,1,5.5|
6,2,2.4|
6,3,4.1|
6,4,0.32|
6,5,9.8|
6,6,4.2|
6,7,3.6|
7,0,0.63|
7,1,6.3|
7,2,3.2|
7,3,4.8|
7,4,2.6|
7,5,3.9|
7,6,3.8|
7,7,4.9|
];
initial_distribution_y1=[0.13,0.051,0.023,0.1,0.17,0.14,0.13,0.25];
initial_distribution_y2=[0.033,0.022,0.13,0.14,0.12,0.065,0.21,0.28];
initial_distribution_y3=[0.14,0.16,0.17,0.011,0.12,0.11,0.14,0.15];
initial_distribution_y4=[0.29,0.18,0.27,0.013,0.061,0.1,0.052,0.028];
initial_distribution_y5=[0.043,0.2,0.097,0.14,0.15,0.14,0.13,0.11];
initial_distribution_y6=[0.21,0.09,0.099,0.1,0.04,0.17,0.21,0.085];
initial_distribution_y7=[0.12,0.071,0.0097,0.14,0.16,0.25,0.035,0.21];
transition_y1=[
0.23,0.028,0.082,0.21,0.22,0.021,0.022,0.18|
0.22,0.18,0.074,0.065,0.21,0.037,0.0072,0.2|
0.18,0.19,0.15,0.079,0.029,0.11,0.16,0.11|
0.12,0.036,0.022,0.11,0.23,0.14,0.1,0.24|
0.2,0.028,0.035,0.15,0.18,0.22,0.14,0.054|
0.057,0.13,0.11,0.096,0.034,0.17,0.22,0.18|
0.09,0.27,0.18,0.23,0.049,0.075,0.0081,0.096|
0.038,0.062,0.16,0.059,0.14,0.22,0.15,0.17|
];
transition_y2=[
0.2,0.077,0.069,0.21,0.17,0.2,0.036,0.035|
0.27,0.13,0.11,0.062,0.22,0.018,0.065,0.13|
0.03,0.22,0.082,0.16,0.19,0.0084,0.12,0.19|
0.18,0.24,0.013,0.23,0.089,0.022,0.0095,0.22|
0.18,0.13,0.048,0.091,0.17,0.12,0.16,0.095|
0.19,0.076,0.066,0.18,0.21,0.029,0.17,0.075|
0.036,0.093,0.18,0.039,0.15,0.19,0.17,0.14|
0.18,0.11,0.069,0.2,0.23,0.16,0.0053,0.049|
];
transition_y3=[
0.16,0.24,0.046,0.031,0.086,0.076,0.22,0.14|
0.062,0.16,0.21,0.059,0.13,0.14,0.093,0.14|
0.076,0.096,0.15,0.16,0.13,0.17,0.1,0.13|
0.17,0.11,0.086,0.074,0.19,0.18,0.024,0.16|
0.065,0.16,0.049,0.047,0.01,0.25,0.17,0.24|
0.067,0.0051,0.13,0.26,0.065,0.12,0.11,0.24|
0.13,0.0084,0.24,0.21,0.15,0.0089,0.11,0.14|
0.22,0.055,0.19,0.03,0.0081,0.12,0.18,0.19|
];
transition_y4=[
0.0072,0.017,0.071,0.22,0.25,0.064,0.18,0.19|
0.14,0.092,0.086,0.16,0.11,0.097,0.18,0.13|
0.087,0.13,0.18,0.17,0.16,0.13,0.018,0.12|
0.14,0.11,0.22,0.2,0.088,0.059,0.11,0.069|
0.17,0.17,0.0092,0.15,0.14,0.042,0.22,0.093|
0.039,0.0077,0.2,0.044,0.24,0.17,0.24,0.057|
0.11,0.045,0.084,0.11,0.18,0.056,0.19,0.23|
0.1,0.12,0.058,0.16,0.17,0.14,0.079,0.17|
];
transition_y5=[
0.046,0.22,0.079,0.038,0.038,0.26,0.24,0.081|
0.074,0.072,0.1,0.11,0.12,0.15,0.18,0.19|
0.016,0.19,0.046,0.18,0.19,0.15,0.2,0.019|
0.26,0.031,0.07,0.1,0.076,0.12,0.19,0.15|
0.19,0.058,0.052,0.22,0.076,0.17,0.059,0.18|
0.14,0.21,0.18,0.099,0.1,0.025,0.062,0.18|
0.19,0.2,0.21,0.048,0.084,0.18,0.07,0.0095|
0.15,0.11,0.1,0.055,0.14,0.2,0.099,0.14|
];
transition_y6=[
0.084,0.16,0.027,0.17,0.055,0.24,0.15,0.12|
0.17,0.11,0.1,0.12,0.18,0.17,0.066,0.081|
0.31,0.068,0.19,0.027,0.078,0.26,0.012,0.055|
0.032,0.21,0.11,0.096,0.074,0.21,0.19,0.074|
0.078,0.21,0.22,0.073,0.13,0.19,0.078,0.016|
0.17,0.21,0.16,0.059,0.22,0.11,0.069,0.0089|
0.22,0.13,0.14,0.2,0.092,0.056,0.035,0.13|
0.085,0.094,0.077,0.26,0.2,0.063,0.13,0.087|
];
transition_y7=[
0.34,0.11,0.3,0.068,0.014,0.044,0.02,0.096|
0.25,0.034,0.076,0.1,0.02,0.27,0.18,0.07|
0.024,0.22,0.25,0.036,0.13,0.064,0.11,0.17|
0.056,0.17,0.18,0.095,0.017,0.19,0.15,0.15|
0.098,0.12,0.2,0.13,0.018,0.087,0.19,0.16|
0.056,0.1,0.17,0.16,0.0087,0.13,0.21,0.16|
0.1,0.13,0.15,0.1,0.062,0.16,0.078,0.21|
0.12,0.19,0.16,0.014,0.021,0.065,0.21,0.22|
];
